Corrida válida:

// solution (optimal) with objective 285
// Quality Incumbent solution:
// MILP objective                                 2,8500000000e+02
// MILP solution norm |x| (Total, Max)            1,14000e+02  6,00000e+00
// MILP solution error (Ax=b) (Total, Max)        0,00000e+00  0,00000e+00
// MILP x bound error (Total, Max)                4,44089e-16  4,44089e-16
// MILP x integrality error (Total, Max)          8,88178e-16  4,44089e-16
// MILP slack bound error (Total, Max)            8,88178e-16  8,88178e-16
// 

Ecodpas = [[1 1 0 0 1 0 0 0 0 0 0 0 0 0 0 0 0 0 0 0 0 0 0 0 0 0 0 0 0 0 0 0
             0 0 0 0 0 0 0 0 0 0 0 0 0 0 0 0 0 0 0 0 0 0 0 0 0 0 0 0 0 0 0]
             [1 1 0 1 0 0 0 0 0 0 0 0 0 0 0 0 0 0 0 0 0 0 0 0 0 0 0 0 0 0 0
             0 0 0 0 0 0 0 0 0 0 0 0 0 0 0 0 0 0 0 0 0 0 0 0 0 0 0 0 0 0 0
             0]
             [1 0 1 0 0 1 0 0 0 0 0 0 0 0 0 0 0 0 0 0 0 0 0 0 0 0 0 0 0 0 0
             0 0 0 0 0 0 0 0 0 0 0 0 0 0 0 0 0 0 0 0 0 0 0 0 0 0 0 0 0 0 0
             0]
             [1 0 1 0 0 0 1 0 0 0 0 0 0 1 0 0 0 0 0 0 0 0 0 0 0 0 0 0 0 0 0
             0 0 0 0 0 0 0 0 0 0 0 0 0 0 0 0 0 0 0 0 0 0 0 0 0 0 0 0 0 0 0
             0]
             [1 0 1 0 0 0 1 0 0 0 0 0 0 0 1 0 0 0 0 0 0 0 0 0 0 0 0 0 0 1 0
             0 0 0 0 0 0 0 0 0 0 0 0 0 0 0 0 0 0 0 0 0 0 0 0 0 0 0 0 0 0 0
             0]
             [1 0 1 0 0 0 1 0 0 0 0 0 0 0 1 0 0 0 0 0 0 0 0 0 0 0 0 0 0 0 1
             0 0 0 0 0 0 0 0 0 0 0 0 0 0 0 0 0 0 0 0 0 0 0 0 0 0 0 0 0 0 0
             0]];
Xpasadas = [6 2 4 1 1 1 3 0 0 0 0 0 0 1 2 0 0 0 0 0 0 0 0 0 0 0 0 0 0 1 1 0
         0 0 0 0 0 0 0 0 0 0 0 0 0 0 0 0 0 0 0 0 0 0 0 0 0 0 0 0 0 0 0];
Mpasadas = [1 1 1 0 0 0 1 1 1 1 1 1 1 0 1 1 1 1 1 1 1 1 1 1 1 1 1 1 1 0 0 1
         1 1 1 1 1 1 1 1 1 1 1 1 1 1 1 1 1 1 1 1 1 1 1 1 1 1 1 1 1 1 1];
Zeropasadas = [1 1 1 1 1 1 1 0 0 0 0 0 0 1 1 0 0 0 0 0 0 0 0 0 0 0 0 0 0 1 1
         0 0 0 0 0 0 0 0 0 0 0 0 0 0 0 0 0 0 0 0 0 0 0 0 0 0 0 0 0 0 0 0];

Tiempo de ejecución:

Tried aggregator 2 times.
MIP Presolve eliminated 204 rows and 11 columns.
MIP Presolve modified 3082 coefficients.
Aggregator did 71 substitutions.
Reduced MIP has 823 rows, 485 columns, and 2828 nonzeros.
Reduced MIP has 456 binaries, 29 generals, 0 SOSs, and 0 indicators.
Presolve time = 0,01 sec. (4,73 ticks)
Found incumbent of value 600,000000 after 0,01 sec. (5,94 ticks)
Probing fixed 237 vars, tightened 26 bounds.
Probing changed sense of 17 constraints.
Probing time = 0,00 sec. (3,03 ticks)
Cover probing fixed 0 vars, tightened 2 bounds.
Tried aggregator 2 times.
MIP Presolve eliminated 473 rows and 265 columns.
MIP Presolve modified 17 coefficients.
Aggregator did 6 substitutions.
Reduced MIP has 344 rows, 214 columns, and 1196 nonzeros.
Reduced MIP has 201 binaries, 13 generals, 0 SOSs, and 0 indicators.
Presolve time = 0,00 sec. (2,00 ticks)
Probing time = 0,00 sec. (1,79 ticks)
Tried aggregator 1 time.
Reduced MIP has 344 rows, 214 columns, and 1196 nonzeros.
Reduced MIP has 201 binaries, 13 generals, 0 SOSs, and 0 indicators.
Presolve time = 0,00 sec. (0,87 ticks)
Probing time = 0,00 sec. (1,81 ticks)
Clique table members: 766.
MIP emphasis: balance optimality and feasibility.
MIP search method: dynamic search.
Parallel mode: deterministic, using up to 8 threads.
Root relaxation solution time = 0,00 sec. (1,20 ticks)

        Nodes                                         Cuts/
   Node  Left     Objective  IInf  Best Integer    Best Bound    ItCnt     Gap

*     0+    0                          600,0000      120,0000            80,00%
      0     0      256,6666    26      600,0000      256,6666       85   57,22%
      0     0      282,9999    63      600,0000      Cuts: 45      130   52,83%
*     0+    0                          300,0000      282,9999             5,67%
      0     0      284,9999    60      300,0000      Cuts: 52      154    5,00%
*     0+    0                          285,0000      284,9999             0,00%
      0     0        cutoff            285,0000      285,0000      154    0,00%
Elapsed time = 0,05 sec. (26,19 ticks, tree = 0,01 MB, solutions = 3)

Clique cuts applied:  7
Cover cuts applied:  5
Implied bound cuts applied:  3
Mixed integer rounding cuts applied:  3
Zero-half cuts applied:  7
Gomory fractional cuts applied:  1

Root node processing (before b&c):
  Real time             =    0,05 sec. (26,22 ticks)
Parallel b&c, 8 threads:
  Real time             =    0,00 sec. (0,00 ticks)
  Sync time (average)   =    0,00 sec.
  Wait time (average)   =    0,00 sec.
                          ------------
Total (root+branch&cut) =    0,05 sec. (26,22 ticks)
